Total weight: 1646.7836617168648
Route 1: 0 33 51 9 34 35 77 0 
Route 2: 0 28 12 76 79 3 68 24 80 0 
Route 3: 0 2 41 56 4 26 0 
Route 4: 0 59 99 96 0 
Route 5: 0 83 45 84 60 89 0 
Route 6: 0 73 21 40 58 0 
Route 7: 0 31 30 50 0 
Route 8: 0 72 75 22 74 0 
Route 9: 0 54 29 78 81 0 
Route 10: 0 52 82 18 0 
Route 11: 0 14 44 38 43 37 0 
Route 12: 0 62 88 7 0 
Route 13: 0 6 94 0 
Route 14: 0 36 47 19 8 46 17 0 
Route 15: 0 92 98 16 86 91 100 0 
Route 16: 0 27 69 1 0 
Route 17: 0 53 0 
Route 18: 0 63 90 10 0 
Route 19: 0 65 71 66 20 32 70 0 
Route 20: 0 5 61 85 93 0 
Route 21: 0 95 42 15 87 57 97 13 0 
Route 22: 0 11 64 49 48 0 
Route 23: 0 39 23 67 55 25 0 
